\ Generated by MPModelProtoExporter
\   Name             : 
\   Format           : Free
\   Constraints      : 57
\   Variables        : 56
\     Binary         : 56
\     Integer        : 0
\     Continuous     : 0
Minimize
 Obj: +3129.12 x[0,1] +2350.94 x[0,2] +27650.4 x[0,3] +9292.65 x[0,4] +24057.6 x[0,5] +24914.9 x[0,6] +292.6 x[1,0] +436.92 x[1,2] +2905.16 x[1,3] +770.04 x[1,4] +2224.64 x[1,5] +2308.28 x[1,6] +1630.29 x[2,0] +3033.66 x[2,1] +19695.2 x[2,3] +6982.44 x[2,4] +18146.2 x[2,5] +18794.4 x[2,6] +2862.32 x[3,0] +3026.92 x[3,1] +2672.72 x[3,2] +3412.96 x[3,4] +4853.44 x[3,5] +4937.08 x[3,6] +2164.3 x[4,0] +2070.8 x[4,1] +2299.2 x[4,2] +8461 x[4,3] +5605.2 x[4,5] +5814.3 x[4,6] +2304.6 x[5,0] +2227.52 x[5,1] +2358.56 x[5,2] +4823.28 x[5,3] +2282.08 x[5,4] +977.32 x[5,6] +3653.34 x[6,0] +3537.72 x[6,1] +3734.28 x[6,2] +7431.3 x[6,3] +3619.5 x[6,4] +1510.5 x[6,5] 
Subject to
 auto_c_000000000: +1 x[0,0] +1 x[0,1] +1 x[0,2] +1 x[0,3] +1 x[0,4] +1 x[0,5] +1 x[0,6]  = 1
 auto_c_000000001: +1 x[1,0] +1 x[1,1] +1 x[1,2] +1 x[1,3] +1 x[1,4] +1 x[1,5] +1 x[1,6]  = 1
 auto_c_000000002: +1 x[2,0] +1 x[2,1] +1 x[2,2] +1 x[2,3] +1 x[2,4] +1 x[2,5] +1 x[2,6]  = 1
 auto_c_000000003: +1 x[3,0] +1 x[3,1] +1 x[3,2] +1 x[3,3] +1 x[3,4] +1 x[3,5] +1 x[3,6]  = 1
 auto_c_000000004: +1 x[4,0] +1 x[4,1] +1 x[4,2] +1 x[4,3] +1 x[4,4] +1 x[4,5] +1 x[4,6]  = 1
 auto_c_000000005: +1 x[5,0] +1 x[5,1] +1 x[5,2] +1 x[5,3] +1 x[5,4] +1 x[5,5] +1 x[5,6]  = 1
 auto_c_000000006: +1 x[6,0] +1 x[6,1] +1 x[6,2] +1 x[6,3] +1 x[6,4] +1 x[6,5] +1 x[6,6]  = 1
 auto_c_000000007_rhs: +1 y[0] +1 y[1] +1 y[2] +1 y[3] +1 y[4] +1 y[5] +1 y[6]  <= 5
 auto_c_000000007_lhs: +1 y[0] +1 y[1] +1 y[2] +1 y[3] +1 y[4] +1 y[5] +1 y[6]  >= 0
 auto_c_000000008_rhs: +1 x[0,0] -1 y[0]  <= 0
 auto_c_000000008_lhs: +1 x[0,0] -1 y[0]  >= -15000
 auto_c_000000009_rhs: +1 x[0,1] -1 y[1]  <= 0
 auto_c_000000009_lhs: +1 x[0,1] -1 y[1]  >= -15000
 auto_c_000000010_rhs: +1 x[0,2] -1 y[2]  <= 0
 auto_c_000000010_lhs: +1 x[0,2] -1 y[2]  >= -15000
 auto_c_000000011_rhs: +1 x[0,3] -1 y[3]  <= 0
 auto_c_000000011_lhs: +1 x[0,3] -1 y[3]  >= -15000
 auto_c_000000012_rhs: +1 x[0,4] -1 y[4]  <= 0
 auto_c_000000012_lhs: +1 x[0,4] -1 y[4]  >= -15000
 auto_c_000000013_rhs: +1 x[0,5] -1 y[5]  <= 0
 auto_c_000000013_lhs: +1 x[0,5] -1 y[5]  >= -15000
 auto_c_000000014_rhs: +1 x[0,6] -1 y[6]  <= 0
 auto_c_000000014_lhs: +1 x[0,6] -1 y[6]  >= -15000
 auto_c_000000015_rhs: +1 x[1,0] -1 y[0]  <= 0
 auto_c_000000015_lhs: +1 x[1,0] -1 y[0]  >= -15000
 auto_c_000000016_rhs: +1 x[1,1] -1 y[1]  <= 0
 auto_c_000000016_lhs: +1 x[1,1] -1 y[1]  >= -15000
 auto_c_000000017_rhs: +1 x[1,2] -1 y[2]  <= 0
 auto_c_000000017_lhs: +1 x[1,2] -1 y[2]  >= -15000
 auto_c_000000018_rhs: +1 x[1,3] -1 y[3]  <= 0
 auto_c_000000018_lhs: +1 x[1,3] -1 y[3]  >= -15000
 auto_c_000000019_rhs: +1 x[1,4] -1 y[4]  <= 0
 auto_c_000000019_lhs: +1 x[1,4] -1 y[4]  >= -15000
 auto_c_000000020_rhs: +1 x[1,5] -1 y[5]  <= 0
 auto_c_000000020_lhs: +1 x[1,5] -1 y[5]  >= -15000
 auto_c_000000021_rhs: +1 x[1,6] -1 y[6]  <= 0
 auto_c_000000021_lhs: +1 x[1,6] -1 y[6]  >= -15000
 auto_c_000000022_rhs: +1 x[2,0] -1 y[0]  <= 0
 auto_c_000000022_lhs: +1 x[2,0] -1 y[0]  >= -15000
 auto_c_000000023_rhs: +1 x[2,1] -1 y[1]  <= 0
 auto_c_000000023_lhs: +1 x[2,1] -1 y[1]  >= -15000
 auto_c_000000024_rhs: +1 x[2,2] -1 y[2]  <= 0
 auto_c_000000024_lhs: +1 x[2,2] -1 y[2]  >= -15000
 auto_c_000000025_rhs: +1 x[2,3] -1 y[3]  <= 0
 auto_c_000000025_lhs: +1 x[2,3] -1 y[3]  >= -15000
 auto_c_000000026_rhs: +1 x[2,4] -1 y[4]  <= 0
 auto_c_000000026_lhs: +1 x[2,4] -1 y[4]  >= -15000
 auto_c_000000027_rhs: +1 x[2,5] -1 y[5]  <= 0
 auto_c_000000027_lhs: +1 x[2,5] -1 y[5]  >= -15000
 auto_c_000000028_rhs: +1 x[2,6] -1 y[6]  <= 0
 auto_c_000000028_lhs: +1 x[2,6] -1 y[6]  >= -15000
 auto_c_000000029_rhs: +1 x[3,0] -1 y[0]  <= 0
 auto_c_000000029_lhs: +1 x[3,0] -1 y[0]  >= -15000
 auto_c_000000030_rhs: +1 x[3,1] -1 y[1]  <= 0
 auto_c_000000030_lhs: +1 x[3,1] -1 y[1]  >= -15000
 auto_c_000000031_rhs: +1 x[3,2] -1 y[2]  <= 0
 auto_c_000000031_lhs: +1 x[3,2] -1 y[2]  >= -15000
 auto_c_000000032_rhs: +1 x[3,3] -1 y[3]  <= 0
 auto_c_000000032_lhs: +1 x[3,3] -1 y[3]  >= -15000
 auto_c_000000033_rhs: +1 x[3,4] -1 y[4]  <= 0
 auto_c_000000033_lhs: +1 x[3,4] -1 y[4]  >= -15000
 auto_c_000000034_rhs: +1 x[3,5] -1 y[5]  <= 0
 auto_c_000000034_lhs: +1 x[3,5] -1 y[5]  >= -15000
 auto_c_000000035_rhs: +1 x[3,6] -1 y[6]  <= 0
 auto_c_000000035_lhs: +1 x[3,6] -1 y[6]  >= -15000
 auto_c_000000036_rhs: +1 x[4,0] -1 y[0]  <= 0
 auto_c_000000036_lhs: +1 x[4,0] -1 y[0]  >= -15000
 auto_c_000000037_rhs: +1 x[4,1] -1 y[1]  <= 0
 auto_c_000000037_lhs: +1 x[4,1] -1 y[1]  >= -15000
 auto_c_000000038_rhs: +1 x[4,2] -1 y[2]  <= 0
 auto_c_000000038_lhs: +1 x[4,2] -1 y[2]  >= -15000
 auto_c_000000039_rhs: +1 x[4,3] -1 y[3]  <= 0
 auto_c_000000039_lhs: +1 x[4,3] -1 y[3]  >= -15000
 auto_c_000000040_rhs: +1 x[4,4] -1 y[4]  <= 0
 auto_c_000000040_lhs: +1 x[4,4] -1 y[4]  >= -15000
 auto_c_000000041_rhs: +1 x[4,5] -1 y[5]  <= 0
 auto_c_000000041_lhs: +1 x[4,5] -1 y[5]  >= -15000
 auto_c_000000042_rhs: +1 x[4,6] -1 y[6]  <= 0
 auto_c_000000042_lhs: +1 x[4,6] -1 y[6]  >= -15000
 auto_c_000000043_rhs: +1 x[5,0] -1 y[0]  <= 0
 auto_c_000000043_lhs: +1 x[5,0] -1 y[0]  >= -15000
 auto_c_000000044_rhs: +1 x[5,1] -1 y[1]  <= 0
 auto_c_000000044_lhs: +1 x[5,1] -1 y[1]  >= -15000
 auto_c_000000045_rhs: +1 x[5,2] -1 y[2]  <= 0
 auto_c_000000045_lhs: +1 x[5,2] -1 y[2]  >= -15000
 auto_c_000000046_rhs: +1 x[5,3] -1 y[3]  <= 0
 auto_c_000000046_lhs: +1 x[5,3] -1 y[3]  >= -15000
 auto_c_000000047_rhs: +1 x[5,4] -1 y[4]  <= 0
 auto_c_000000047_lhs: +1 x[5,4] -1 y[4]  >= -15000
 auto_c_000000048_rhs: +1 x[5,5] -1 y[5]  <= 0
 auto_c_000000048_lhs: +1 x[5,5] -1 y[5]  >= -15000
 auto_c_000000049_rhs: +1 x[5,6] -1 y[6]  <= 0
 auto_c_000000049_lhs: +1 x[5,6] -1 y[6]  >= -15000
 auto_c_000000050_rhs: +1 x[6,0] -1 y[0]  <= 0
 auto_c_000000050_lhs: +1 x[6,0] -1 y[0]  >= -15000
 auto_c_000000051_rhs: +1 x[6,1] -1 y[1]  <= 0
 auto_c_000000051_lhs: +1 x[6,1] -1 y[1]  >= -15000
 auto_c_000000052_rhs: +1 x[6,2] -1 y[2]  <= 0
 auto_c_000000052_lhs: +1 x[6,2] -1 y[2]  >= -15000
 auto_c_000000053_rhs: +1 x[6,3] -1 y[3]  <= 0
 auto_c_000000053_lhs: +1 x[6,3] -1 y[3]  >= -15000
 auto_c_000000054_rhs: +1 x[6,4] -1 y[4]  <= 0
 auto_c_000000054_lhs: +1 x[6,4] -1 y[4]  >= -15000
 auto_c_000000055_rhs: +1 x[6,5] -1 y[5]  <= 0
 auto_c_000000055_lhs: +1 x[6,5] -1 y[5]  >= -15000
 auto_c_000000056_rhs: +1 x[6,6] -1 y[6]  <= 0
 auto_c_000000056_lhs: +1 x[6,6] -1 y[6]  >= -15000
Bounds
 0 <= x[0,0] <= 1
 0 <= x[0,1] <= 1
 0 <= x[0,2] <= 1
 0 <= x[0,3] <= 1
 0 <= x[0,4] <= 1
 0 <= x[0,5] <= 1
 0 <= x[0,6] <= 1
 0 <= x[1,0] <= 1
 0 <= x[1,1] <= 1
 0 <= x[1,2] <= 1
 0 <= x[1,3] <= 1
 0 <= x[1,4] <= 1
 0 <= x[1,5] <= 1
 0 <= x[1,6] <= 1
 0 <= x[2,0] <= 1
 0 <= x[2,1] <= 1
 0 <= x[2,2] <= 1
 0 <= x[2,3] <= 1
 0 <= x[2,4] <= 1
 0 <= x[2,5] <= 1
 0 <= x[2,6] <= 1
 0 <= x[3,0] <= 1
 0 <= x[3,1] <= 1
 0 <= x[3,2] <= 1
 0 <= x[3,3] <= 1
 0 <= x[3,4] <= 1
 0 <= x[3,5] <= 1
 0 <= x[3,6] <= 1
 0 <= x[4,0] <= 1
 0 <= x[4,1] <= 1
 0 <= x[4,2] <= 1
 0 <= x[4,3] <= 1
 0 <= x[4,4] <= 1
 0 <= x[4,5] <= 1
 0 <= x[4,6] <= 1
 0 <= x[5,0] <= 1
 0 <= x[5,1] <= 1
 0 <= x[5,2] <= 1
 0 <= x[5,3] <= 1
 0 <= x[5,4] <= 1
 0 <= x[5,5] <= 1
 0 <= x[5,6] <= 1
 0 <= x[6,0] <= 1
 0 <= x[6,1] <= 1
 0 <= x[6,2] <= 1
 0 <= x[6,3] <= 1
 0 <= x[6,4] <= 1
 0 <= x[6,5] <= 1
 0 <= x[6,6] <= 1
 0 <= y[0] <= 1
 0 <= y[1] <= 1
 0 <= y[2] <= 1
 0 <= y[3] <= 1
 0 <= y[4] <= 1
 0 <= y[5] <= 1
 0 <= y[6] <= 1
Binaries
 x[0,0]
 x[0,1]
 x[0,2]
 x[0,3]
 x[0,4]
 x[0,5]
 x[0,6]
 x[1,0]
 x[1,1]
 x[1,2]
 x[1,3]
 x[1,4]
 x[1,5]
 x[1,6]
 x[2,0]
 x[2,1]
 x[2,2]
 x[2,3]
 x[2,4]
 x[2,5]
 x[2,6]
 x[3,0]
 x[3,1]
 x[3,2]
 x[3,3]
 x[3,4]
 x[3,5]
 x[3,6]
 x[4,0]
 x[4,1]
 x[4,2]
 x[4,3]
 x[4,4]
 x[4,5]
 x[4,6]
 x[5,0]
 x[5,1]
 x[5,2]
 x[5,3]
 x[5,4]
 x[5,5]
 x[5,6]
 x[6,0]
 x[6,1]
 x[6,2]
 x[6,3]
 x[6,4]
 x[6,5]
 x[6,6]
 y[0]
 y[1]
 y[2]
 y[3]
 y[4]
 y[5]
 y[6]
End
